SECTION Graph
Nodes 529
Edges 1032
E 1 502 477
E 1 508 415
E 2 218 117
E 3 442 143
E 4 5 1
E 4 438 91
E 4 457 1
E 4 459 1
E 5 6 1
E 5 26 179
E 5 439 91
E 5 485 128
E 6 459 1
E 6 487 128
E 7 8 1
E 7 459 14
E 7 461 1
E 7 479 104
E 8 9 1
E 8 481 104
E 9 444 101
E 9 461 1
E 10 11 1
E 10 415 91
E 10 430 1
E 10 433 1
E 11 12 1
E 11 416 91
E 11 457 101
E 12 433 1
E 12 443 14
E 12 458 101
E 13 14 1
E 13 433 14
E 13 441 1
E 13 443 1
E 14 15 1
E 14 444 1
E 15 441 1
E 15 442 1
E 16 476 1
E 16 478 1
E 17 478 1
E 17 492 14
E 18 19 1
E 18 478 14
E 18 490 1
E 18 492 1
E 19 20 1
E 19 493 1
E 19 504 91
E 20 475 78
E 20 490 1
E 20 503 91
E 21 22 1
E 21 437 104
E 21 460 1
E 22 23 1
E 22 464 23
E 23 460 1
E 23 462 14
E 23 466 23
E 24 25 1
E 24 460 14
E 24 462 1
E 25 26 1
E 25 463 1
E 25 480 91
E 26 479 91
E 27 28 1
E 27 374 76
E 27 404 1
E 27 406 1
E 28 29 1
E 28 377 76
E 28 445 232
E 29 406 1
E 29 409 14
E 29 447 232
E 30 31 1
E 30 406 14
E 30 408 1
E 30 409 1
E 31 32 1
E 31 410 1
E 31 411 76
E 32 408 1
E 32 429 168
E 33 34 1
E 33 285 145
E 33 366 1
E 34 35 1
E 34 44 145
E 34 367 1
E 35 366 1
E 35 368 1
E 35 370 14
E 36 37 1
E 36 366 14
E 36 370 1
E 37 38 1
E 37 374 1
E 37 404 76
E 38 283 161
E 39 40 1
E 39 226 76
E 39 275 1
E 39 278 1
E 40 41 1
E 40 228 76
E 41 278 1
E 42 43 1
E 42 278 14
E 42 284 1
E 43 44 1
E 43 367 145
E 44 284 1
E 44 285 1
E 45 46 1
E 45 389 53
E 45 401 1
E 45 403 1
E 46 47 1
E 46 390 53
E 47 403 1
E 48 49 1
E 48 403 14
E 48 407 1
E 49 50 1
E 50 365 102
E 50 407 1
E 51 52 1
E 51 258 76
E 51 292 1
E 51 294 1
E 52 53 1
E 52 259 76
E 52 348 102
E 53 294 1
E 53 350 102
E 54 55 1
E 54 294 14
E 54 312 1
E 54 360 111
E 55 56 1
E 55 362 111
E 56 300 11
E 56 312 1
E 57 58 1
E 57 395 7
E 57 397 1
E 57 399 1
E 58 59 1
E 58 396 7
E 59 399 1
E 60 61 1
E 60 399 14
E 60 400 1
E 61 62 1
E 62 390 26
E 62 400 1
E 63 64 1
E 63 186 214
E 63 304 1
E 63 310 1
E 64 65 1
E 64 187 214
E 64 314 6
E 65 310 1
E 65 316 6
E 65 322 14
E 66 67 1
E 66 310 14
E 66 320 1
E 66 322 1
E 67 68 1
E 67 323 1
E 67 349 76
E 68 308 15
E 68 320 1
E 68 348 76
E 69 70 1
E 69 132 237
E 69 221 1
E 69 227 1
E 70 71 1
E 70 133 237
E 70 234 11
E 71 227 1
E 71 237 11
E 71 242 14
E 72 73 1
E 72 227 14
E 72 240 1
E 72 242 1
E 73 74 1
E 73 243 1
E 73 296 91
E 74 194 106
E 74 240 1
E 74 295 91
E 75 76 1
E 75 120 237
E 75 171 1
E 76 77 1
E 76 121 237
E 76 172 1
E 77 171 1
E 77 174 1
E 77 188 14
E 78 79 1
E 78 171 14
E 78 188 1
E 79 80 1
E 79 190 1
E 79 273 168
E 80 118 253
E 80 272 168
E 81 344 1
E 81 346 1
E 82 346 1
E 83 84 1
E 83 346 14
E 83 347 1
E 84 85 1
E 85 325 64
E 85 347 1
E 86 87 1
E 86 309 1
E 86 313 1
E 87 88 1
E 87 344 64
E 88 313 1
E 88 324 14
E 88 345 64
E 89 90 1
E 89 313 14
E 89 321 1
E 89 324 1
E 90 91 1
E 90 325 1
E 91 280 52
E 91 321 1
E 92 93 1
E 92 135 1
E 92 137 1
E 93 94 1
E 93 139 15
E 94 137 1
E 94 140 14
E 94 142 15
E 95 96 1
E 95 137 14
E 95 138 1
E 95 140 1
E 96 97 1
E 96 143 1
E 96 287 237
E 97 133 98
E 97 138 1
E 97 286 237
E 98 99 1
E 98 110 92
E 99 108 14
E 99 112 92
E 100 101 1
E 100 108 1
E 101 102 1
E 101 109 1
E 103 104 1
E 103 200 130
E 104 105 15
E 104 134 15
E 104 202 130
E 105 106 1
E 105 206 131
E 106 107 1
E 106 134 1
E 106 148 30
E 107 147 30
E 108 109 1
E 108 116 92
E 109 118 92
E 110 111 1
E 110 112 1
E 111 113 1
E 111 114 1
E 112 114 1
E 112 116 14
E 113 115 1
E 113 122 108
E 114 115 1
E 114 117 14
E 115 119 14
E 115 124 108
E 116 117 1
E 116 118 1
E 117 119 1
E 117 120 1
E 118 120 1
E 119 121 1
E 119 128 108
E 120 121 1
E 121 130 108
E 122 123 1
E 122 124 1
E 123 125 1
E 123 126 1
E 124 126 1
E 124 128 14
E 125 127 1
E 125 135 98
E 126 127 1
E 126 129 14
E 127 131 14
E 127 136 98
E 128 129 1
E 128 130 1
E 129 131 1
E 129 132 1
E 130 132 1
E 130 221 237
E 131 133 1
E 131 138 98
E 132 133 1
E 134 150 30
E 134 208 130
E 135 136 1
E 136 137 1
E 136 138 14
E 139 141 1
E 139 142 1
E 140 143 1
E 140 153 15
E 141 144 1
E 141 145 1
E 142 145 1
E 142 153 14
E 143 155 15
E 143 289 237
E 144 146 1
E 144 147 6
E 145 146 1
E 145 154 14
E 146 149 6
E 146 156 14
E 147 148 1
E 147 149 1
E 148 150 1
E 148 151 1
E 149 151 1
E 149 159 14
E 150 152 1
E 150 229 131
E 151 152 1
E 151 161 14
E 152 165 14
E 152 231 131
E 153 154 1
E 153 155 1
E 154 156 1
E 154 157 1
E 155 157 1
E 155 160 7
E 156 158 1
E 156 159 6
E 157 158 1
E 157 163 7
E 158 162 6
E 158 167 7
E 159 161 1
E 159 162 1
E 160 163 1
E 160 164 1
E 161 165 1
E 161 166 1
E 162 166 1
E 162 175 7
E 163 167 1
E 163 168 1
E 164 168 1
E 164 182 14
E 165 169 1
E 165 244 131
E 166 169 1
E 166 177 7
E 167 170 1
E 167 175 6
E 168 170 1
E 168 183 14
E 169 179 7
E 169 246 131
E 170 178 6
E 170 185 14
E 172 173 1
E 172 174 1
E 173 176 1
E 173 221 106
E 174 176 1
E 174 189 14
E 175 177 1
E 175 178 1
E 176 191 14
E 176 224 106
E 177 179 1
E 177 180 1
E 178 180 1
E 178 193 14
E 179 181 1
E 179 248 130
E 180 181 1
E 180 195 14
E 181 197 14
E 181 250 130
E 182 183 1
E 182 184 1
E 183 185 1
E 183 186 1
E 184 186 1
E 184 304 214
E 185 187 1
E 185 193 6
E 186 187 1
E 187 196 6
E 188 189 1
E 188 190 1
E 189 191 1
E 189 192 1
E 190 192 1
E 190 212 76
E 191 194 1
E 191 240 106
E 192 194 1
E 192 213 76
E 193 195 1
E 193 196 1
E 194 215 76
E 195 197 1
E 195 198 1
E 196 198 1
E 196 314 214
E 197 199 1
E 197 260 130
E 198 199 1
E 198 315 214
E 199 262 130
E 199 317 214
E 200 201 1
E 200 202 1
E 201 203 1
E 201 204 1
E 202 204 1
E 202 206 14
E 203 205 1
E 203 218 38
E 204 205 1
E 204 207 14
E 205 209 14
E 205 219 38
E 206 207 1
E 206 208 1
E 207 209 1
E 207 210 1
E 208 210 1
E 208 248 53
E 209 211 1
E 209 233 38
E 210 211 1
E 210 229 30
E 211 230 30
E 211 235 38
E 212 213 1
E 212 214 1
E 213 215 1
E 213 216 1
E 214 216 1
E 214 220 14
E 215 217 1
E 215 292 119
E 216 217 1
E 216 222 14
E 217 225 14
E 217 293 119
E 218 219 1
E 219 233 14
E 220 222 1
E 220 223 1
E 221 224 1
E 222 225 1
E 222 226 1
E 223 226 1
E 223 275 76
E 224 227 1
E 224 240 14
E 225 228 1
E 225 295 106
E 226 228 1
E 228 297 106
E 229 230 1
E 229 231 1
E 230 232 1
E 230 263 38
E 231 232 1
E 231 244 14
E 232 245 14
E 232 266 38
E 233 235 1
E 234 236 1
E 234 237 1
E 235 263 30
E 236 238 1
E 236 239 1
E 237 239 1
E 237 251 14
E 238 241 1
E 238 286 85
E 239 241 1
E 239 254 14
E 241 257 14
E 241 288 85
E 242 243 1
E 242 251 11
E 243 255 11
E 243 298 91
E 244 245 1
E 244 246 1
E 245 247 1
E 245 268 38
E 246 247 1
E 246 249 7
E 247 252 7
E 247 269 38
E 248 249 1
E 248 250 1
E 249 252 1
E 249 253 1
E 250 253 1
E 250 260 14
E 251 254 1
E 251 255 1
E 252 256 1
E 252 270 38
E 253 256 1
E 253 261 14
E 254 257 1
E 254 258 1
E 255 258 1
E 255 292 76
E 256 264 14
E 256 271 38
E 257 259 1
E 257 301 85
E 258 259 1
E 259 303 85
E 260 261 1
E 260 262 1
E 261 264 1
E 261 265 1
E 262 265 1
E 262 379 214
E 263 266 1
E 264 267 1
E 264 279 38
E 265 267 1
E 265 380 214
E 266 268 14
E 267 280 38
E 267 382 214
E 268 269 1
E 269 270 7
E 270 271 1
E 270 309 52
E 271 279 14
E 271 311 52
E 272 273 1
E 272 274 1
E 273 275 1
E 273 276 1
E 274 276 1
E 274 281 14
E 275 277 1
E 276 277 1
E 276 282 14
E 277 278 1
E 277 284 14
E 279 280 1
E 279 321 52
E 281 282 1
E 281 283 1
E 282 284 1
E 282 285 1
E 283 285 1
E 286 287 1
E 286 288 1
E 287 289 1
E 287 290 1
E 288 290 1
E 288 301 14
E 289 291 1
E 289 304 15
E 290 291 1
E 290 302 14
E 291 305 14
E 291 307 15
E 292 293 1
E 293 294 1
E 293 312 14
E 295 296 1
E 295 297 1
E 296 298 1
E 296 299 1
E 297 299 1
E 298 300 1
E 298 312 11
E 299 300 1
E 301 302 1
E 301 303 1
E 302 305 1
E 302 306 1
E 303 306 1
E 304 307 1
E 305 308 1
E 305 320 15
E 306 308 1
E 307 310 1
E 307 320 14
E 309 311 1
E 311 313 1
E 311 321 14
E 314 315 1
E 314 316 1
E 315 317 1
E 315 318 1
E 316 318 1
E 316 326 14
E 317 319 1
E 317 379 130
E 318 319 1
E 318 327 14
E 319 329 14
E 319 381 130
E 322 323 1
E 322 326 6
E 323 328 6
E 323 351 76
E 324 325 1
E 324 347 64
E 326 327 1
E 326 328 1
E 327 329 1
E 327 330 1
E 328 330 1
E 328 332 7
E 329 331 1
E 329 391 130
E 330 331 1
E 330 333 7
E 331 335 7
E 331 393 130
E 332 333 1
E 332 334 1
E 333 335 1
E 333 336 1
E 334 336 1
E 334 338 14
E 335 337 1
E 335 369 102
E 336 337 1
E 336 339 14
E 337 341 14
E 337 372 102
E 338 339 1
E 338 340 1
E 339 341 1
E 339 342 1
E 340 342 1
E 340 354 53
E 341 343 1
E 341 385 102
E 342 343 1
E 342 355 53
E 343 357 53
E 343 387 102
E 344 345 1
E 345 346 1
E 345 347 14
E 348 349 1
E 348 350 1
E 349 351 1
E 349 352 1
E 350 352 1
E 351 353 1
E 351 354 6
E 352 353 1
E 353 356 6
E 354 355 1
E 354 356 1
E 355 357 1
E 355 358 1
E 356 358 1
E 356 360 14
E 357 359 1
E 357 401 102
E 358 359 1
E 358 361 14
E 359 363 14
E 359 402 102
E 360 361 1
E 360 362 1
E 361 363 1
E 361 364 1
E 362 364 1
E 362 417 237
E 363 365 1
E 363 407 102
E 364 365 1
E 364 418 237
E 365 420 237
E 367 368 1
E 367 417 232
E 368 373 14
E 368 419 232
E 369 371 1
E 369 372 1
E 370 373 1
E 370 374 1
E 371 375 1
E 371 376 1
E 372 376 1
E 372 385 14
E 373 377 1
E 373 423 232
E 374 377 1
E 375 378 1
E 375 397 26
E 376 378 1
E 376 386 14
E 377 425 232
E 378 388 14
E 378 398 26
E 379 380 1
E 379 381 1
E 380 382 1
E 380 383 1
E 381 383 1
E 381 391 14
E 382 384 1
E 383 384 1
E 383 392 14
E 384 394 14
E 385 386 1
E 385 387 1
E 386 388 1
E 386 389 1
E 387 389 1
E 387 401 53
E 388 390 1
E 388 400 26
E 389 390 1
E 391 392 1
E 391 393 1
E 392 394 1
E 392 395 1
E 393 395 1
E 393 397 7
E 394 396 1
E 395 396 1
E 397 398 1
E 398 399 1
E 398 400 14
E 401 402 1
E 402 403 1
E 402 407 14
E 404 405 1
E 405 406 1
E 405 408 14
E 409 410 1
E 409 451 232
E 410 412 76
E 410 453 232
E 411 412 1
E 411 413 1
E 412 414 1
E 412 415 1
E 413 415 1
E 413 430 91
E 414 416 1
E 414 434 101
E 415 416 1
E 416 436 101
E 417 418 1
E 417 419 1
E 418 420 1
E 418 421 1
E 419 421 1
E 419 423 14
E 420 422 1
E 421 422 1
E 421 424 14
E 422 426 14
E 423 424 1
E 423 425 1
E 424 426 1
E 424 427 1
E 425 427 1
E 425 445 76
E 426 428 1
E 427 428 1
E 427 446 76
E 428 448 76
E 429 430 1
E 429 431 1
E 430 432 1
E 431 432 1
E 431 440 14
E 432 433 1
E 432 441 14
E 434 435 1
E 434 436 1
E 435 437 1
E 435 438 1
E 436 438 1
E 436 457 91
E 437 439 1
E 438 439 1
E 439 460 104
E 440 441 1
E 440 442 1
E 443 444 1
E 443 461 101
E 445 446 1
E 445 447 1
E 446 448 1
E 446 449 1
E 447 449 1
E 447 451 14
E 448 450 1
E 449 450 1
E 449 452 14
E 450 454 14
E 451 452 1
E 451 453 1
E 452 454 1
E 452 455 1
E 453 455 1
E 453 464 76
E 454 456 1
E 455 456 1
E 455 465 76
E 456 467 76
E 457 458 1
E 458 459 1
E 458 461 14
E 462 463 1
E 462 470 23
E 463 472 23
E 463 482 91
E 464 465 1
E 464 466 1
E 465 467 1
E 465 468 1
E 466 468 1
E 466 470 14
E 467 469 1
E 467 476 78
E 468 469 1
E 468 471 14
E 469 473 14
E 469 477 78
E 470 471 1
E 470 472 1
E 471 473 1
E 471 474 1
E 472 474 1
E 472 485 76
E 473 475 1
E 473 490 78
E 474 475 1
E 474 486 76
E 475 488 76
E 476 477 1
E 477 478 1
E 477 490 14
E 479 480 1
E 479 481 1
E 480 482 1
E 480 483 1
E 481 483 1
E 482 484 1
E 482 494 23
E 483 484 1
E 484 496 23
E 485 486 1
E 485 487 1
E 486 488 1
E 486 489 1
E 487 489 1
E 487 494 14
E 488 491 1
E 489 491 1
E 489 495 14
E 491 497 14
E 492 493 1
E 493 506 91
E 494 495 1
E 494 496 1
E 495 497 1
E 495 498 1
E 496 498 1
E 496 500 18
E 497 499 1
E 497 503 78
E 498 499 1
E 498 501 18
E 499 502 18
E 499 505 78
E 500 501 1
E 501 502 1
E 503 504 1
E 503 505 1
E 504 506 1
E 504 507 1
E 505 507 1
E 506 508 1
E 507 508 1
E 1 509 100000
E 2 510 100000
E 3 511 100000
E 4 512 100000
E 5 512 100000
E 6 512 100000
E 7 512 100000
E 8 512 100000
E 9 512 100000
E 10 513 100000
E 11 513 100000
E 12 513 100000
E 13 513 100000
E 14 513 100000
E 15 513 100000
E 16 514 100000
E 17 514 100000
E 18 514 100000
E 19 514 100000
E 20 514 100000
E 21 515 100000
E 22 515 100000
E 23 515 100000
E 24 515 100000
E 25 515 100000
E 26 515 100000
E 27 516 100000
E 28 516 100000
E 29 516 100000
E 30 516 100000
E 31 516 100000
E 32 516 100000
E 33 517 100000
E 34 517 100000
E 35 517 100000
E 36 517 100000
E 37 517 100000
E 38 517 100000
E 39 518 100000
E 40 518 100000
E 41 518 100000
E 42 518 100000
E 43 518 100000
E 44 518 100000
E 45 519 100000
E 46 519 100000
E 47 519 100000
E 48 519 100000
E 49 519 100000
E 50 519 100000
E 51 520 100000
E 52 520 100000
E 53 520 100000
E 54 520 100000
E 55 520 100000
E 56 520 100000
E 57 521 100000
E 58 521 100000
E 59 521 100000
E 60 521 100000
E 61 521 100000
E 62 521 100000
E 63 522 100000
E 64 522 100000
E 65 522 100000
E 66 522 100000
E 67 522 100000
E 68 522 100000
E 69 523 100000
E 70 523 100000
E 71 523 100000
E 72 523 100000
E 73 523 100000
E 74 523 100000
E 75 524 100000
E 76 524 100000
E 77 524 100000
E 78 524 100000
E 79 524 100000
E 80 524 100000
E 81 525 100000
E 82 525 100000
E 83 525 100000
E 84 525 100000
E 85 525 100000
E 86 526 100000
E 87 526 100000
E 88 526 100000
E 89 526 100000
E 90 526 100000
E 91 526 100000
E 92 527 100000
E 93 527 100000
E 94 527 100000
E 95 527 100000
E 96 527 100000
E 97 527 100000
E 98 528 100000
E 99 528 100000
E 100 528 100000
E 101 528 100000
E 102 528 100000
E 103 529 100000
E 104 529 100000
E 105 529 100000
E 106 529 100000
E 107 529 100000
END

SECTION Terminals
Terminals 21
T 509
T 510
T 511
T 512
T 513
T 514
T 515
T 516
T 517
T 518
T 519
T 520
T 521
T 522
T 523
T 524
T 525
T 526
T 527
T 528
T 529
END

EOF
